(set-logic QF_S)
(declare-fun var0 () String)
(assert (RegexIn var0 (RegexConcat (RegexUnion (RegexUnion (Str2Reg "00") (Str2Reg "111")) (RegexUnion (Str2Reg "2") (Str2Reg "333"))) (RegexConcat (RegexUnion (RegexPlus (Str2Reg "4")) (RegexPlus (Str2Reg "555"))) (RegexConcat (RegexStar (RegexUnion (Str2Reg "6") (Str2Reg "777"))) (RegexConcat (RegexStar (RegexStar (Str2Reg "8"))) (RegexConcat (RegexStar (RegexPlus (Str2Reg "99"))) (RegexConcat (RegexUnion (RegexStar (Str2Reg "aaa")) (RegexStar (Str2Reg "b"))) (RegexConcat (RegexUnion (RegexPlus (Str2Reg "c")) (RegexPlus (Str2Reg "dd"))) (RegexConcat (RegexStar (RegexStar (Str2Reg "ee"))) (RegexConcat (RegexUnion (RegexStar (Str2Reg "f")) (RegexStar (Str2Reg "ggg"))) (RegexPlus (RegexPlus (Str2Reg "hhh"))))))))))))))
(assert (<= 251 (Length var0)))
(check-sat)